HUN,8,6,807
0,1,2,10,5,4,3,24,1,12,4,23
4,21,1,18,3,10,5,28,2,13,0,23
5,2,2,29,4,9,0,1,3,9,1,17
5,27,0,30,1,20,2,24,3,16,4,28
3,18,4,19,1,12,5,13,2,30,0,22
5,13,1,10,4,22,3,10,2,3,0,12
5,1,3,24,0,2,2,26,4,10,1,5
4,3,0,25,1,10,5,7,3,29,2,24
